1214
27504
14208
14064
18427
25036
13398
2919
20103
5503
22494
26644
13605
11273
6842
24159
16495
21696
5184
30813
23739
2972
23305
24206
19551
1961
32297
17343
24489
26705
8028
24948
18406
31739
12881
9405
9775
2923
12830
31947
4863
20293
24193
7984
5934
21449
16228
22012
7477
3509
2605
15052
18126
8724
22378
32616
13778
9291
18052
10942
21972
25157
17211
28302
23354
27140
11803
5832
11809
7313
10457
32350
23249
3965
2361
1312
9725
7657
16335
24298
27874
28337
24744
20532
16753
27476
27932
23526
31670
8459
5524
10774
4532
77
26674
14156
31093
29437
27633
16682
